db/data/14411322042745336561518920952757930757.z3.out
-------------------
2500.098882693
